Test: fpga11_13_uns_rcr.cnf
Options: -no-inverting-opt -sym-usage-var-bump
WARNING: for repeatability, setting FPU to use double precision
============================[ Problem Statistics ]=============================
|                                                                             |
|  Number of symmetries:           44                                         |
|  Number of invertingSyms:         0                                         |
|  Number of variables:           286                                         |
|  Number of clauses:            1742                                         |
|  Parse time:                   0.00 s                                       |
|                                                                             |
============================[ Search Statistics ]==============================
| Conflicts |          ORIGINAL         |          LEARNT          | Progress |
|           |    Vars  Clauses Literals |    Limit  Clauses Lit/Cl |          |
===============================================================================
|       100 |     286     1742     3718 |      638      141     56 |  0.001 % |
|       250 |     286     1742     3718 |      702      353     56 |  0.001 % |
|       475 |     286     1742     3718 |      772      712     55 |  0.001 % |
|       812 |     286     1742     3718 |      850      570     41 |  0.001 % |
|      1318 |     286     1742     3718 |      935      525     38 |  0.001 % |
|      2077 |     286     1742     3718 |     1028      827     41 |  0.001 % |
|      3216 |     286     1742     3718 |     1131      655     39 |  0.001 % |
|      4924 |     286     1742     3718 |     1244     1141     44 |  0.001 % |
|      7486 |     286     1742     3718 |     1369     1193     45 |  0.001 % |
|     11330 |     286     1742     3718 |     1506      985     38 |  0.001 % |
|     17096 |     286     1742     3718 |     1656     1483     35 |  0.001 % |
===============================================================================
restarts              : 63
conflicts             : 18818          (37937 /sec)
symconflicts          : 2130           (4294 /sec)
decisions             : 31245          (0.00 % random) (62990 /sec)
propagations          : 413099         (832809 /sec)
sympropagations       : 13371          (26956 /sec)
conflict literals     : 889130         (6.34 % deleted)
literals     : 889130         (6.34 % deleted)

HEURISTIC USAGES
random                : 0           
activity w/ lookahead : 0           
activity no lookahead : 0           
original sp           : 31245       
sym count             : 0           

Memory used           : 6.00 MB
CPU time              : 0.496031 s

UNSATISFIABLE
